9
0 31 14 95 98 53 32 97 19 
76 0 11 6 12 69 33 97 23 
25 46 0 9 39 11 35 75 53 
53 60 12 0 12 14 71 67 54 
96 58 6 8 0 59 91 96 40 
38 62 30 53 96 0 75 86 10 
63 58 36 71 21 55 0 41 40 
70 65 8 15 54 54 71 0 52 
69 31 81 47 44 70 78 94 0 
